Version identifier: 12.10.0.0 | 2019-11-26 | 843d4de
CPXPARAM_WorkMem                                 28672
Tried aggregator 2 times.
Aggregator did 30 substitutions.
Reduced MIP has 108 rows, 135 columns, and 492 nonzeros.
Reduced MIP has 135 binaries, 0 generals, 0 SOSs, and 0 indicators.
Presolve time = 0,00 sec. (0,46 ticks)
Found incumbent of value 1824,000000 after 0,00 sec. (0,91 ticks)
Probing time = 0,00 sec. (0,15 ticks)
Tried aggregator 1 time.
Detecting symmetries...
MIP Presolve eliminated 21 rows and 0 columns.
MIP Presolve added 42 rows and 0 columns.
Reduced MIP has 129 rows, 135 columns, and 513 nonzeros.
Reduced MIP has 135 binaries, 0 generals, 0 SOSs, and 0 indicators.
Presolve time = 0,00 sec. (0,53 ticks)
Probing time = 0,00 sec. (0,14 ticks)
Clique table members: 327.
MIP emphasis: balance optimality and feasibility.
MIP search method: dynamic search.
Parallel mode: deterministic, using up to 16 threads.
Root relaxation solution time = 0,00 sec. (0,39 ticks)

        Nodes                                         Cuts/
   Node  Left     Objective  IInf  Best Integer    Best Bound    ItCnt     Gap

*     0+    0                         1824,0000        0,0000           100,00%
*     0+    0                         1382,0000        0,0000           100,00%
*     0+    0                         1349,0000        0,0000           100,00%
      0     0      608,0000    83     1349,0000      608,0000       54   54,93%
*     0+    0                         1337,0000      608,0000            54,53%
      0     0      608,0000    83     1337,0000     Cuts: 127      112   54,53%
*     0+    0                         1253,0000      608,0000            51,48%
      0     0      608,0000    83     1253,0000     Cuts: 108      156   51,48%
      0     0      608,0000    83     1253,0000     Cuts: 132      224   51,48%
*     0+    0                         1141,0000      608,0000            46,71%
Detecting symmetries...
      0     2      608,0000   102     1141,0000      806,8500      224   29,29%
Elapsed time = 0,06 sec. (18,80 ticks, tree = 0,02 MB, solutions = 6)

Clique cuts applied:  79
Cover cuts applied:  169
Mixed integer rounding cuts applied:  5
Zero-half cuts applied:  1

Root node processing (before b&c):
  Real time             =    0,05 sec. (18,72 ticks)
Parallel b&c, 16 threads:
  Real time             =    0,31 sec. (131,34 ticks)
  Sync time (average)   =    0,18 sec.
  Wait time (average)   =    0,00 sec.
                          ------------
Total (root+branch&cut) =    0,37 sec. (150,06 ticks)
